TCS_Benchmarks/redos_fix/snort3_output_distinct_2401_2400_13_0.txt
[^>]*
([^>]*)([pP][oO][sS][iI][tT][iI][oO][nN][^>]*[iI][nN][hH][eE][rR][iI][tT])([^>]*)
[^>]*